(set-logic ALL)
(declare-const GEN1 Int)
(declare-const BAV2 Bool)
(declare-const BAV3 Bool)
(declare-const i15 Int)
(assert (= true true true (not (= i15 GEN1))))
(assert (= BAV2 (= true true true (not (= i15 GEN1)))))
(assert (= BAV3 (= i15 GEN1)))
(check-sat)
(exit)